# Solution for model iteration_549_copy
# Objective value = 1.1085728577927966e+02
0 0
1 2.8731592647834603e-01
3 2.2009999999999934e+00
5 0.001
7 0.001
9 2.6401999999999983e+01
11 1.9692463967029049e+01
13 4.0574631852956685e+01
15 5.0602999999999973e+01
17 4.0021447757474505e+01
18 4.1021447757474505e+01
19 41.0224477574745
21 5.0039353521432695e+01
22 5.1039353521432695e+01
23 5.3582957780247419e+01
24 5.4582957780247419e+01
25 4.9085928404476519e+01
26 5.0085928404476519e+01
27 5.4754288646496988e+01
29 6.5448987129263131e+01
31 7.4803999999999974e+01
33 9.1191092064031622e+01
34 9.2191092064031622e+01
35 9.0979651460613510e+01
36 9.1979651460613510e+01
37 9.2192092064031627e+01
39 1.0340499999999997e+02
41 8.5569707380870938e+01
42 8.6569707380870938e+01
43 8.4135733133991735e+01
44 8.5135733133991735e+01
45 7.0132552010712232e+01
46 7.1132552010712232e+01
47 8.6570707380870942e+01
49 7.1133552010712236e+01
51 1.1772275628045784e+02
52 1.1872275628045784e+02
53 1.1793419699880010e+02
54 1.1893419699880010e+02
55 1.1893519699880011e+02
57 1.3200599999999997e+02
59 1.0540033226737930e+02
60 1.0640033226737930e+02
61 1.0641667062001856e+02
63 1.4400303670851719e+02
64 1.4500303670851719e+02
65 1.4514260206072854e+02
67 1.2331239060752762e+02
69 1.1110941060445174e+02
70 1.1210941060445174e+02
71 1.1211041060445174e+02
73 1.7107783097756138e+02
74 1.7207783097756138e+02
75 1.7207883097756138e+02
76 1.7307883097756138e+02
77 1.5051803629586360e+02
78 1.5151803629586360e+02
79 1.5151903629586360e+02
81 1.7122041261281640e+02
82 1.7222041261281640e+02
83 1.8012003629586360e+02
85 1.5199694310611076e+02
86 1.5299694310611076e+02
87 1.5302017789365686e+02
89 1.7761418111257328e+02
90 1.7861418111257328e+02
91 1.7122041261281640e+02
92 1.7222041261281640e+02
93 1.7761418111257328e+02
94 1.7861418111257328e+02
95 1.7222141261281641e+02
96 1.7322141261281641e+02
97 1.7861518111257328e+02
98 1.7961518111257328e+02
99 1.7756757084359489e+02
100 1.7856757084359489e+02
101 1.7222141261281641e+02
102 1.7322141261281641e+02
103 1.7322241261281641e+02
105 1.7861518111257328e+02
107 1.9108981822606944e+02
108 1.9208981822606944e+02
109 1.9209081822606944e+02
111 2.0933095421116897e+02
113 2.2353297752213109e+02
114 2.2453297752213109e+02
115 2.2460982143642769e+02
117 2.6002336028393313e+02
118 2.6102336028393313e+02
119 2.6102436028393311e+02
121 2.5326297081669787e+02
122 2.5426297081669787e+02
123 2.5328295192664606e+02
124 2.5428295192664606e+02
125 2.5328295192664606e+02
126 2.5428295192664606e+02
127 2.5428395192664607e+02
129 2.8062465082020248e+02
130 2.8162465082020248e+02
131 2.8162565082020245e+02
132 2.8262565082020245e+02
133 2.8262665082020243e+02
135 3.0676834032910563e+02
136 3.0776834032910563e+02
137 3.0913529274404783e+02
138 3.1013529274404783e+02
139 3.0913832675826126e+02
140 3.1013832675826126e+02
141 3.1013932675826123e+02
143 3.1013629274404781e+02
144 3.1113629274404781e+02
145 3.1113729274404778e+02
147 2.9166323351189050e+02
148 2.9266323351189050e+02
149 3.3309895548240911e+02
150 3.3409895548240911e+02
151 2.9266423351189053e+02
152 2.9366423351189053e+02
153 2.9366523351189051e+02
155 3.3409995548240909e+02
156 3.3509995548240909e+02
157 3.3510095548240906e+02
159 3.4853829274404779e+02
160 3.4953829274404779e+02
161 3.5323741042663084e+02
162 3.5423741042663084e+02
163 3.3580052015166251e+02
164 3.3680052015166251e+02
165 3.3580052015166251e+02
166 3.3680052015166251e+02
167 3.3680152015166249e+02
169 3.5423841042663082e+02
170 3.5523841042663082e+02
171 3.5523941042663080e+02
173 3.7186228577927966e+02
174 3.7286228577927966e+02
175 3.7286328577927964e+02
c(0,175)_ru 1.1085728577927966e+02
lambda[0] 0
lambda[1] 0
lambda[2] 0
lambda[3] 0
lambda[4] 0
lambda[5] 0
lambda[6] 0
lambda[7] 0
lambda[8] 0
lambda[9] 0
lambda[10] 0
lambda[11] 0
lambda[12] 0
lambda[13] 0
lambda[14] 0
lambda[15] 0
lambda[16] 0
lambda[17] 0
lambda[18] 0
lambda[19] 0
lambda[20] 0
lambda[21] 0
lambda[22] 0
lambda[23] 0
lambda[24] 0
lambda[25] 0
lambda[26] 0
lambda[27] 0
lambda[28] 0
lambda[29] 0
lambda[30] 0
lambda[31] 0
lambda[32] 0
lambda[33] 0
lambda[34] 0
lambda[35] 0
lambda[36] 0
lambda[37] 0
lambda[38] 0
lambda[39] 0
lambda[40] 0
lambda[41] 0
lambda[42] 0
lambda[43] 0
lambda[44] 0
lambda[45] 0
lambda[46] 0
lambda[47] 0
lambda[48] 0
lambda[49] 0
lambda[50] 0
lambda[51] 0
lambda[52] 0
lambda[53] 0
lambda[54] 0
lambda[55] 0
lambda[56] 0
lambda[57] 0
lambda[58] 0
lambda[59] 0
lambda[60] 0
lambda[61] 0
lambda[62] 0
lambda[63] 0
lambda[64] 0
lambda[65] 0
lambda[66] 0
lambda[67] 0
lambda[68] 0
lambda[69] 0
lambda[70] 0
lambda[71] 0
lambda[72] 0
lambda[73] 0
lambda[74] 0
lambda[75] 0
lambda[76] 0
lambda[77] 0
lambda[78] 0
lambda[79] 0
lambda[80] 0
lambda[81] 0
lambda[82] 0
lambda[83] 0
lambda[84] 0
lambda[85] 0
lambda[86] 0
lambda[87] 0
lambda[88] 0
lambda[89] 0
lambda[90] 0
lambda[91] 0
lambda[92] 0
lambda[93] 0
lambda[94] 0
lambda[95] 0
lambda[96] 0
lambda[97] 0
lambda[98] 0
lambda[99] 0
lambda[100] 0
lambda[101] 0
lambda[102] 0
lambda[103] 0
lambda[104] 0
lambda[105] 0
lambda[106] 0
lambda[107] 0
lambda[108] 0
lambda[109] 0
lambda[110] 0
lambda[111] 0
lambda[112] 0
lambda[113] 0
lambda[114] 0
lambda[115] 0
lambda[116] 0
lambda[117] 0
lambda[118] 0
lambda[119] 0
lambda[120] 0
lambda[121] 0
lambda[122] 0
lambda[123] 0
lambda[124] 0
lambda[125] 0
lambda[126] 0
lambda[127] 0
lambda[128] 0
lambda[129] 0
lambda[130] 0
lambda[131] 0
lambda[132] 0
lambda[133] 0
lambda[134] 0
lambda[135] 0
lambda[136] 0
lambda[137] 0
lambda[138] 0
lambda[139] 0
lambda[140] 0
lambda[141] 0
lambda[142] 0
lambda[143] 0
lambda[144] 0
lambda[145] 0
lambda[146] 0
lambda[147] 0
lambda[148] 0
lambda[149] 0
lambda[150] 0
lambda[151] 0
lambda[152] 0
lambda[153] 0
lambda[154] 0
lambda[155] 0
lambda[156] 0
lambda[157] 0
lambda[158] 0
lambda[159] 0
lambda[160] 0
lambda[161] 0
lambda[162] 0
lambda[163] 0
lambda[164] 0
lambda[165] 0
lambda[166] 0
lambda[167] 0
lambda[168] 0
lambda[169] 0
lambda[170] 0
lambda[171] 0
lambda[172] 0
lambda[173] 0
lambda[174] 0
lambda[175] 0
lambda[176] 0
lambda[177] 0
lambda[178] 0
lambda[179] 0
lambda[180] 0
lambda[181] 0
lambda[182] 0
lambda[183] 0
lambda[184] 0
lambda[185] 0
lambda[186] 0
lambda[187] 0
lambda[188] 0
lambda[189] 0
lambda[190] 0
lambda[191] 0
lambda[192] 0
lambda[193] 0
lambda[194] 0
lambda[195] 0
lambda[196] 0
lambda[197] 0
lambda[198] 0
lambda[199] 0
lambda[200] 0
lambda[201] 0
lambda[202] 0
lambda[203] 0
lambda[204] 0
lambda[205] 0
lambda[206] 0
lambda[207] 0
lambda[208] 0
lambda[209] 0
lambda[210] 0
lambda[211] 0
lambda[212] 0
lambda[213] 0
lambda[214] 0
lambda[215] 0
lambda[216] 0
lambda[217] 0
lambda[218] 0
lambda[219] 0
lambda[220] 0
lambda[221] 0
lambda[222] 0
lambda[223] 0
lambda[224] 0
lambda[225] 0
lambda[226] 0
lambda[227] 0
lambda[228] 0
lambda[229] 0
lambda[230] 0
lambda[231] 0
lambda[232] 0
lambda[233] 0
lambda[234] 0
lambda[235] 0
lambda[236] 0
lambda[237] 0
lambda[238] 0
lambda[239] 0
lambda[240] 0
lambda[241] 0
lambda[242] 0
lambda[243] 0
lambda[244] 0
lambda[245] 0
lambda[246] 0
lambda[247] 0
lambda[248] 0
lambda[249] 0
lambda[250] 0
lambda[251] 0
lambda[252] 0
lambda[253] 0
lambda[254] 0
lambda[255] 0
lambda[256] 0
lambda[257] 0
lambda[258] 0
lambda[259] 0
lambda[260] 0
lambda[261] 0
lambda[262] 0
lambda[263] 0
lambda[264] 0
lambda[265] 0
lambda[266] 0
lambda[267] 0
lambda[268] 0
lambda[269] 0
lambda[270] 0
lambda[271] 0
lambda[272] 0
lambda[273] 0
lambda[274] 0
lambda[275] 0
lambda[276] 0
lambda[277] 0
lambda[278] 0
lambda[279] 0
lambda[280] 0
lambda[281] 0
lambda[282] 0
lambda[283] 0
lambda[284] 0
lambda[285] 0
lambda[286] 0
lambda[287] 0
lambda[288] 0
lambda[289] 0
lambda[290] 0
lambda[291] 0
lambda[292] 0
lambda[293] 0
lambda[294] 0
lambda[295] 0
lambda[296] 0
lambda[297] 0
lambda[298] 0
lambda[299] 0
lambda[300] 0
lambda[301] 0
lambda[302] 0
lambda[303] 0
lambda[304] 0
lambda[305] 0
lambda[306] 0
lambda[307] 0
lambda[308] 0
lambda[309] 0
lambda[310] 0
lambda[311] 0
lambda[312] 0
lambda[313] 0
lambda[314] 0
lambda[315] 0
lambda[316] 0
lambda[317] 0
lambda[318] 0
lambda[319] 0
lambda[320] 0
lambda[321] 0
lambda[322] 0
lambda[323] 0
lambda[324] 0
lambda[325] 0
lambda[326] 0
lambda[327] 0
lambda[328] 0
lambda[329] 0
lambda[330] 0
lambda[331] 0
lambda[332] 0
lambda[333] 0
lambda[334] 0
lambda[335] 0
lambda[336] 0
lambda[337] 0
lambda[338] 0
lambda[339] 0
lambda[340] 0
lambda[341] 0
lambda[342] 0
lambda[343] 0
lambda[344] 0
lambda[345] 0
lambda[346] 0
lambda[347] 0
lambda[348] 0
lambda[349] 0
lambda[350] 0
lambda[351] 0
lambda[352] 0
lambda[353] 0
lambda[354] 0
lambda[355] 0
lambda[356] 0
lambda[357] 0
lambda[358] 0
lambda[359] 0
lambda[360] 0
lambda[361] 0
lambda[362] 0
lambda[363] 0
lambda[364] 0
lambda[365] 0
lambda[366] 0
lambda[367] 0
lambda[368] 0
lambda[369] 0
lambda[370] 0
lambda[371] 0
lambda[372] 0
lambda[373] 0
lambda[374] 0
lambda[375] 0
lambda[376] 0
lambda[377] 0
lambda[378] 0
lambda[379] 0
lambda[380] 0
lambda[381] 0
lambda[382] 0
lambda[383] 0
lambda[384] 0
lambda[385] 0
lambda[386] 0
lambda[387] 0
lambda[388] 0
lambda[389] 0
lambda[390] 0
lambda[391] 0
lambda[392] 0
lambda[393] 0
lambda[394] 0
lambda[395] 0
lambda[396] 0
lambda[397] 0
lambda[398] 0
lambda[399] 0
lambda[400] 0
lambda[401] 0
lambda[402] 0
lambda[403] 0
lambda[404] 0
lambda[405] 0
lambda[406] 0
lambda[407] 0
lambda[408] 0
lambda[409] 0
lambda[410] 0
lambda[411] 0
lambda[412] 0
lambda[413] 0
lambda[414] 0
lambda[415] 0
lambda[416] 0
lambda[417] 0
lambda[418] 0
lambda[419] 0
lambda[420] 0
lambda[421] 0
lambda[422] 0
lambda[423] 0
lambda[424] 0
lambda[425] 0
lambda[426] 0
lambda[427] 0
lambda[428] 0
lambda[429] 0
lambda[430] 0
lambda[431] 0
lambda[432] 0
lambda[433] 0
lambda[434] 0
lambda[435] 0
lambda[436] 0
lambda[437] 0
lambda[438] 0
lambda[439] 0
lambda[440] 0
lambda[441] 0
lambda[442] 0
lambda[443] 0
lambda[444] 0
lambda[445] 0
lambda[446] 0
lambda[447] 0
lambda[448] 0
lambda[449] 0
lambda[450] 0
lambda[451] 0
lambda[452] 0
lambda[453] 0
lambda[454] 0
lambda[455] 0
lambda[456] 0
lambda[457] 0
lambda[458] 0
lambda[459] 0
lambda[460] 0
lambda[461] 0
lambda[462] 0
lambda[463] 0
lambda[464] 0
lambda[465] 0
lambda[466] 0
lambda[467] 0
lambda[468] 0
lambda[469] 0
lambda[470] 0
lambda[471] 0
lambda[472] 0
lambda[473] 0
lambda[474] 0
lambda[475] 0
lambda[476] 0
lambda[477] 0
lambda[478] 0
lambda[479] 0
lambda[480] 0
lambda[481] 0
lambda[482] 0
lambda[483] 0
lambda[484] 0
lambda[485] 0
lambda[486] 0
lambda[487] 0
lambda[488] 0
lambda[489] 0
lambda[490] 0
lambda[491] 0
lambda[492] 0
lambda[493] 0
lambda[494] 0
lambda[495] 0
lambda[496] 0
lambda[497] 0
lambda[498] 5.5057760701788974e-04
lambda[499] 0
lambda[500] 0
lambda[501] 0
lambda[502] 0
lambda[503] 0
lambda[504] 0
lambda[505] 0
lambda[506] 0
lambda[507] 0
lambda[508] 0
lambda[509] 0
lambda[510] 0
lambda[511] 0
lambda[512] 0
lambda[513] 0
lambda[514] 0
lambda[515] 3.9270871196079955e-03
lambda[516] 0
lambda[517] 0
lambda[518] 0
lambda[519] 0
lambda[520] 0
lambda[521] 0
lambda[522] 0
lambda[523] 0
lambda[524] 0
lambda[525] 0
lambda[526] 0
lambda[527] 4.4341354764845589e-03
lambda[528] 0
lambda[529] 0
lambda[530] 0
lambda[531] 9.0268082028443688e-03
lambda[532] 0
lambda[533] 0
lambda[534] 0
lambda[535] 0
lambda[536] 0
lambda[537] 0
lambda[538] 0
lambda[539] 9.7560626303262465e-01
lambda[540] 5.5277004680861445e-03
lambda[541] 0
lambda[542] 0
lambda[543] 9.2742809333436161e-04
lambda[544] 0
lambda[545] 0
lambda[546] 0
lambda[547] 0
lambda[548] 0
phi[0] 2.2314355131420971e-01
